unsat
(define-fun SC ((s (_ BitVec 4)) (t (_ BitVec 4))) Bool (bvult t #b1111))
0.12user 0.00system 0:00.13elapsed 96%CPU (0avgtext+0avgdata 28684maxresident)k
8inputs+8outputs (0major+1796minor)pagefaults 0swaps
